8
    0   22   40   15   35   20   30   42
   22    0    7   14   15   20    8   16
   40    7    0   19   14   22    5    8
   15   14   19    0   12   14    9   18
   35   15   14   12    0    8    7    6
   20   20   22   14    8    0   16   20
   30    8    5    9    7   16    0    7
   42   16    8   18    6   20    7    0
